\* Problem_1 *\
Maximize
Total_profit: 0.8 H_Product_1 + 0.3 H_Product_2 + 0.38 H_Product_3
 + 0.4 H_Product_4
Subject To
Material_N1_Requirement: 0.5 H_Product_1 + 0.2 H_Product_2 + 0.3 H_Product_3
 + 0.6 H_Product_4 <= 600
Material_N2_Requirement: 0.1 H_Product_1 + 0.4 H_Product_2 + 0.2 H_Product_3
 + 0.5 H_Product_4 <= 800
End
